10 5 2.93 2 3 2 8 8201 4105
3 1 3 2 2
1 90
2 90
1 10
2 8
3 8
1 410
2 1140
1 1 0 600
2 1 0 580
3 2 0 560
4 2 0 500
5 2 0 580
6 2 0 550
7 2 0 540
8 2 0 570
0 2 1 180 2 230 11 1 2 4 6 1 1 2 3 5 13 1 3 2 3 1 4 2 5 1 3 2 3 4 12 1 4 2 3 1 15 1 2 2 2 5 17 1 4 2 1 1 2 4 13 1 4 2 3 3 9 1 3 2 2 1 3 5 17 1 4 2 4 4 18 1 4 2 4 3 7 1 1 2 2 2 2 5 5 1 4 2 4 3 12 1 1 2 2 1 2 4 19 1 5 2 2 1 18 1 2 2 3 3 4 1 13 1 4 2 2 4 8 1 2 2 1 3 5 1 5 2 3 2 18 1 5 2 4 3 2 4 7 1 5 2 4 3 5 1 1 2 2 3 3 2 10 1 4 2 5 3 17 1 1 2 1 1 20 1 4 2 1 3 3 1 12 1 3 2 5 3 19 1 2 2 5 4 17 1 2 2 3 1 2 1 14 1 2 2 2 4 20 1 2 2 5 
0 2 1 180 2 190 8 2 2 2 11 1 3 2 1 3 12 1 4 2 3 1 4 4 5 1 1 2 2 3 11 1 5 2 3 2 5 1 1 2 4 5 17 1 4 2 2 1 4 1 8 1 1 2 3 2 12 1 4 2 4 4 6 1 5 2 2 3 13 1 2 2 3 3 4 3 18 1 5 2 3 2 8 1 3 2 3 1 11 1 4 2 3 4 7 1 4 2 5 3 4 1 16 1 2 2 1 2 17 1 1 2 5 3 14 1 3 2 5 4 6 1 5 2 4 1 4 1 13 1 2 2 1 3 12 1 3 2 2 4 12 1 1 2 5 5 19 1 4 2 2 2 4 3 12 1 1 2 3 1 16 1 2 2 3 5 17 1 3 2 2 2 5 1 2 2 1 2 3 1 20 1 2 2 3 2 6 1 4 2 4 5 13 1 2 2 5 
0 2 1 240 2 160 10 3 3 2 15 1 5 2 4 3 16 1 3 2 5 4 20 1 3 2 3 3 3 5 17 1 2 2 4 2 19 1 5 2 3 1 13 1 2 2 1 2 2 4 15 1 2 2 1 5 16 1 3 2 3 3 3 4 17 1 3 2 5 3 13 1 3 2 5 2 5 1 5 2 5 2 4 4 13 1 1 2 5 3 16 1 3 2 3 5 19 1 2 2 2 2 14 1 2 2 1 3 3 4 14 1 5 2 3 1 15 1 1 2 4 5 14 1 2 2 2 2 2 4 8 1 5 2 4 1 16 1 4 2 3 2 4 5 12 1 5 2 1 1 16 1 5 2 5 3 13 1 5 2 4 2 9 1 3 2 1 1 3 5 18 1 1 2 1 4 16 1 5 2 4 1 11 1 1 2 3 3 2 1 19 1 4 2 1 4 10 1 2 2 5 
2 1 110 2 100 6 3 110 4 150 5 160 6 120 7 110 8 160 9 1 4 5 8 1 2 2 4 1 11 1 4 2 5 3 13 1 5 2 3 2 5 1 3 2 3 3 2 1 12 1 5 2 4 3 12 1 2 2 4 3 3 5 7 1 1 2 4 3 10 1 1 2 3 1 18 1 4 2 2 1 2 3 20 1 4 2 5 4 18 1 2 2 5 3 2 5 14 1 3 2 2 4 18 1 4 2 1 2 2 3 20 1 5 2 3 5 15 1 3 2 1 1 3 4 17 1 2 2 3 2 10 1 1 2 4 1 10 1 1 2 4 1 2 2 5 1 4 2 5 1 13 1 2 2 1 1 4 2 9 1 5 2 5 1 13 1 5 2 4 4 10 1 1 2 1 3 11 1 4 2 1 
2 1 130 2 160 6 3 110 4 140 5 110 6 150 7 210 8 150 8 2 4 3 8 1 1 2 2 1 7 1 5 2 4 5 17 1 1 2 3 2 7 1 5 2 4 2 3 3 8 1 4 2 2 5 6 1 3 2 4 4 9 1 5 2 3 1 2 4 18 1 5 2 2 3 17 1 4 2 2 1 3 4 6 1 2 2 5 1 7 1 4 2 1 5 11 1 1 2 3 2 2 4 12 1 3 2 5 5 10 1 2 2 2 3 4 5 11 1 3 2 3 4 5 1 5 2 2 1 6 1 4 2 5 3 20 1 5 2 2 1 3 2 7 1 1 2 5 1 14 1 2 2 3 3 7 1 3 2 2 3 2 3 14 1 1 2 5 4 9 1 1 2 4 
2 1 150 2 140 6 3 220 4 100 5 150 6 170 7 120 8 130 9 3 4 3 18 1 2 2 5 2 7 1 3 2 4 1 15 1 4 2 2 4 9 1 5 2 4 1 3 2 6 1 3 2 2 3 8 1 1 2 2 1 20 1 4 2 4 1 4 1 10 1 2 2 5 2 11 1 5 2 5 3 9 1 5 2 1 4 8 1 5 2 3 1 3 2 9 1 3 2 2 3 10 1 2 2 3 1 5 1 3 2 1 3 3 3 12 1 4 2 5 2 19 1 4 2 3 1 14 1 3 2 4 2 4 1 5 1 2 2 2 4 12 1 2 2 1 5 7 1 4 2 2 3 10 1 3 2 3 1 3 1 20 1 2 2 5 4 13 1 5 2 5 3 15 1 5 2 2 1 4 3 15 1 4 2 2 2 15 1 4 2 4 5 5 1 2 2 4 4 15 1 4 2 5 2 2 3 17 1 4 2 1 1 7 1 3 2 1 
2 1 210 2 180 6 3 120 4 110 5 160 6 110 7 100 8 130 10 2 2 2 13 1 4 2 5 5 12 1 2 2 1 3 2 3 12 1 3 2 3 4 12 1 5 2 4 2 3 5 13 1 1 2 5 4 8 1 1 2 1 2 11 1 1 2 4 2 3 4 16 1 2 2 3 1 18 1 1 2 3 2 15 1 4 2 4 2 2 4 20 1 1 2 3 5 11 1 1 2 3 2 2 3 17 1 1 2 3 2 18 1 3 2 3 1 3 5 7 1 4 2 3 4 8 1 1 2 1 1 13 1 4 2 5 2 2 3 11 1 5 2 2 4 11 1 5 2 4 1 3 5 6 1 2 2 1 1 8 1 4 2 5 4 16 1 4 2 4 1 3 5 5 1 4 2 4 4 19 1 4 2 4 1 19 1 2 2 2 
6 3 250 4 160 5 180 6 230 7 170 8 150 0 10 2 3 5 9 1 2 2 2 2 12 1 5 2 1 3 17 1 5 2 2 2 2 5 13 1 3 2 1 3 19 1 1 2 1 1 3 3 14 1 1 2 1 4 6 1 3 2 1 5 6 1 5 2 5 3 3 3 5 1 2 2 5 4 19 1 3 2 3 5 5 1 4 2 3 2 3 2 19 1 4 2 5 1 19 1 1 2 2 3 8 1 4 2 1 1 3 1 16 1 5 2 1 2 20 1 4 2 5 4 11 1 5 2 1 2 4 1 10 1 5 2 5 5 17 1 1 2 4 2 6 1 3 2 3 3 17 1 3 2 2 1 2 3 19 1 1 2 4 2 7 1 1 2 4 3 2 4 8 1 1 2 4 5 7 1 2 2 3 2 2 4 10 1 2 2 4 3 13 1 5 2 1 
6 3 170 4 180 5 140 6 170 7 210 8 150 0 12 1 3 2 10 1 4 2 3 3 15 1 3 2 5 1 7 1 5 2 5 2 3 5 17 1 4 2 5 4 6 1 1 2 5 3 10 1 1 2 4 2 4 4 10 1 5 2 3 3 7 1 1 2 4 1 5 1 5 2 1 5 18 1 2 2 5 1 4 1 18 1 2 2 1 2 9 1 2 2 1 3 5 1 2 2 2 4 5 1 1 2 2 3 3 2 20 1 1 2 3 3 13 1 2 2 4 4 17 1 1 2 2 3 2 4 11 1 3 2 4 1 11 1 5 2 5 3 3 1 10 1 3 2 1 3 16 1 3 2 2 5 17 1 1 2 2 1 3 1 20 1 1 2 3 3 19 1 4 2 1 4 10 1 5 2 5 1 3 4 11 1 3 2 2 5 20 1 3 2 3 3 19 1 3 2 4 3 3 5 12 1 3 2 2 4 17 1 2 2 5 2 13 1 5 2 5 1 3 4 19 1 2 2 3 5 8 1 2 2 2 3 6 1 1 2 2 2 4 5 9 1 4 2 2 2 18 1 2 2 2 4 16 1 3 2 3 3 10 1 2 2 3 
6 3 140 4 160 5 260 6 150 7 160 8 270 0 11 3 2 4 12 1 1 2 3 3 16 1 3 2 1 1 2 5 17 1 3 2 1 2 10 1 5 2 2 3 3 5 7 1 5 2 4 3 19 1 3 2 4 1 18 1 4 2 3 2 2 5 17 1 3 2 4 2 16 1 2 2 4 2 4 3 19 1 1 2 2 1 7 1 2 2 1 4 7 1 3 2 3 5 19 1 5 2 2 3 2 1 17 1 1 2 1 2 11 1 1 2 2 3 4 1 9 1 3 2 5 2 12 1 1 2 1 3 20 1 2 2 4 4 17 1 4 2 5 3 4 2 13 1 3 2 3 1 12 1 2 2 2 3 18 1 2 2 2 4 11 1 1 2 2 3 4 4 12 1 2 2 1 1 15 1 3 2 2 5 5 1 1 2 3 3 10 1 5 2 2 1 4 3 19 1 5 2 2 2 14 1 1 2 1 4 11 1 1 2 5 5 7 1 2 2 4 1 2 3 19 1 2 2 5 5 8 1 1 2 4 
